% long01
% START_DATE: 2010-01-01
% END_DATE: 2010-01-28
NUM_DAYS = 28
SKILLS = {Nurse, HeadNurse}
E = {Nurse}
L = {Nurse}
D = {Nurse}
N = {Nurse}
DH = {HeadNurse}
SHIFT_TYPES = {E, L, D, N, DH}
CoverRequirements = [|8, 8, 5, 6, 2
 | 6, 6, 3, 4, 1
 | 6, 6, 3, 4, 1
 | 8, 8, 5, 6, 2
 | 8, 8, 5, 6, 2
 | 8, 8, 5, 6, 2
 | 8, 8, 5, 6, 2
 | 8, 8, 5, 6, 2
 | 6, 6, 3, 4, 1
 | 6, 6, 3, 4, 1
 | 8, 8, 5, 6, 2
 | 8, 8, 5, 6, 2
 | 8, 8, 5, 6, 2
 | 8, 8, 5, 6, 2
 | 8, 8, 5, 6, 2
 | 6, 6, 3, 4, 1
 | 6, 6, 3, 4, 1
 | 8, 8, 5, 6, 2
 | 8, 8, 5, 6, 2
 | 8, 8, 5, 6, 2
 | 8, 8, 5, 6, 2
 | 8, 8, 5, 6, 2
 | 6, 6, 3, 4, 1
 | 6, 6, 3, 4, 1
 | 8, 8, 5, 6, 2
 | 8, 8, 5, 6, 2
 | 8, 8, 5, 6, 2
 | 8, 8, 5, 6, 2
 | ] 
